p cnf 100 3994
-2 -10
-2 -14
-2 -18
-2 -20
-2 -22
-2 -26
-2 -28
-2 -30
-2 -38
-2 -62
-2 -64
-2 -68
-2 -76
-2 -84
-2 -88
-2 -90
-2 -92
-2 -96
-2 -98
-2 -102
-2 -106
-2 -110
-2 -112
-2 -128
-2 -132
-2 -146
-2 -148
-2 -150
-2 -152
-2 -156
-2 -164
-2 -168
-2 -170
-2 -174
-2 -176
-2 -190
-2 -196
-2 -198
-2 -202
-2 -204
-2 -212
-2 -218
-2 -222
-2 -226
-2 -228
-2 -234
-2 -240
-2 -252
-2 -256
-2 -258
-2 -264
-2 -270
-2 -282
-2 -284
-2 -286
-2 -298
-2 -300
-2 -304
-2 -308
-2 -314
-2 -316
-2 -320
-2 -322
-2 -330
-2 -338
-2 -340
-2 -350
-2 -352
-2 -354
-2 -364
-2 -372
-2 -386
-2 -390
-2 -392
-2 -396
-2 -398
-4 -10
-4 -14
-4 -20
-4 -22
-4 -26
-4 -28
-4 -30
-4 -38
-4 -44
-4 -50
-4 -62
-4 -64
-4 -66
-4 -68
-4 -76
-4 -84
-4 -90
-4 -92
-4 -96
-4 -98
-4 -102
-4 -106
-4 -108
-4 -110
-4 -112
-4 -116
-4 -128
-4 -142
-4 -146
-4 -148
-4 -150
-4 -152
-4 -154
-4 -156
-4 -164
-4 -168
-4 -170
-4 -174
-4 -176
-4 -188
-4 -190
-4 -196
-4 -198
-4 -202
-4 -204
-4 -212
-4 -214
-4 -218
-4 -222
-4 -226
-4 -228
-4 -234
-4 -236
-4 -240
-4 -254
-4 -256
-4 -264
-4 -270
-4 -276
-4 -280
-4 -282
-4 -284
-4 -288
-4 -298
-4 -300
-4 -304
-4 -308
-4 -314
-4 -316
-4 -320
-4 -322
-4 -330
-4 -334
-4 -338
-4 -350
-4 -352
-4 -354
-4 -364
-4 -370
-4 -372
-4 -376
-4 -386
-4 -390
-4 -392
-4 -394
-10 -14
-10 -18
-10 -20
-10 -26
-10 -28
-10 -30
-10 -38
-10 -44
-10 -62
-10 -64
-10 -66
-10 -68
-10 -76
-10 -84
-10 -90
-10 -92
-10 -96
-10 -98
-10 -102
-10 -106
-10 -108
-10 -110
-10 -112
-10 -116
-10 -128
-10 -142
-10 -146
-10 -150
-10 -152
-10 -156
-10 -164
-10 -168
-10 -170
-10 -176
-10 -188
-10 -190
-10 -196
-10 -198
-10 -202
-10 -212
-10 -214
-10 -218
-10 -228
-10 -234
-10 -236
-10 -240
-10 -252
-10 -254
-10 -256
-10 -258
-10 -268
-10 -270
-10 -276
-10 -280
-10 -282
-10 -284
-10 -288
-10 -298
-10 -300
-10 -304
-10 -314
-10 -316
-10 -320
-10 -322
-10 -330
-10 -338
-10 -340
-10 -348
-10 -350
-10 -352
-10 -364
-10 -372
-10 -374
-10 -376
-10 -384
-10 -386
-10 -390
-10 -394
-10 -396
-10 -398
-14 -18
-14 -20
-14 -22
-14 -28
-14 -30
-14 -38
-14 -44
-14 -62
-14 -64
-14 -68
-14 -76
-14 -84
-14 -90
-14 -92
-14 -96
-14 -98
-14 -102
-14 -108
-14 -112
-14 -116
-14 -128
-14 -132
-14 -142
-14 -146
-14 -148
-14 -150
-14 -152
-14 -154
-14 -156
-14 -170
-14 -188
-14 -190
-14 -196
-14 -198
-14 -202
-14 -204
-14 -212
-14 -214
-14 -218
-14 -222
-14 -226
-14 -228
-14 -234
-14 -236
-14 -240
-14 -252
-14 -256
-14 -258
-14 -264
-14 -268
-14 -270
-14 -276
-14 -280
-14 -282
-14 -286
-14 -288
-14 -300
-14 -304
-14 -308
-14 -314
-14 -320
-14 -322
-14 -330
-14 -338
-14 -348
-14 -350
-14 -352
-14 -354
-14 -364
-14 -370
-14 -372
-14 -374
-14 -376
-14 -384
-14 -386
-14 -390
-14 -392
-14 -394
-14 -396
-14 -398
-18 -20
-18 -22
-18 -26
-18 -28
-18 -30
-18 -44
-18 -50
-18 -62
-18 -64
-18 -66
-18 -68
-18 -76
-18 -84
-18 -88
-18 -92
-18 -96
-18 -98
-18 -102
-18 -106
-18 -108
-18 -110
-18 -112
-18 -116
-18 -128
-18 -132
-18 -142
-18 -148
-18 -154
-18 -156
-18 -164
-18 -168
-18 -170
-18 -174
-18 -188
-18 -196
-18 -198
-18 -202
-18 -212
-18 -214
-18 -218
-18 -222
-18 -226
-18 -228
-18 -234
-18 -236
-18 -240
-18 -252
-18 -254
-18 -258
-18 -268
-18 -270
-18 -276
-18 -280
-18 -282
-18 -286
-18 -288
-18 -298
-18 -300
-18 -304
-18 -308
-18 -314
-18 -320
-18 -322
-18 -330
-18 -334
-18 -338
-18 -340
-18 -348
-18 -350
-18 -354
-18 -364
-18 -370
-18 -374
-18 -384
-18 -386
-18 -390
-18 -394
-18 -396
-18 -398
-20 -22
-20 -28
-20 -30
-20 -38
-20 -44
-20 -50
-20 -62
-20 -66
-20 -68
-20 -76
-20 -84
-20 -88
-20 -92
-20 -96
-20 -98
-20 -102
-20 -106
-20 -110
-20 -112
-20 -128
-20 -132
-20 -142
-20 -150
-20 -152
-20 -156
-20 -164
-20 -168
-20 -170
-20 -174
-20 -176
-20 -188
-20 -190
-20 -196
-20 -198
-20 -204
-20 -212
-20 -218
-20 -222
-20 -226
-20 -228
-20 -234
-20 -240
-20 -252
-20 -254
-20 -256
-20 -258
-20 -268
-20 -276
-20 -280
-20 -282
-20 -284
-20 -286
-20 -288
-20 -298
-20 -300
-20 -304
-20 -308
-20 -314
-20 -316
-20 -320
-20 -322
-20 -330
-20 -334
-20 -338
-20 -350
-20 -352
-20 -354
-20 -364
-20 -370
-20 -374
-20 -376
-20 -384
-20 -386
-20 -390
-20 -392
-20 -394
-20 -398
-22 -26
-22 -28
-22 -38
-22 -50
-22 -62
-22 -64
-22 -66
-22 -68
-22 -76
-22 -84
-22 -88
-22 -90
-22 -92
-22 -102
-22 -106
-22 -108
-22 -110
-22 -112
-22 -116
-22 -128
-22 -132
-22 -146
-22 -148
-22 -150
-22 -152
-22 -154
-22 -156
-22 -164
-22 -168
-22 -170
-22 -174
-22 -176
-22 -188
-22 -190
-22 -198
-22 -204
-22 -212
-22 -218
-22 -226
-22 -234
-22 -240
-22 -252
-22 -254
-22 -256
-22 -258
-22 -264
-22 -268
-22 -270
-22 -276
-22 -280
-22 -282
-22 -284
-22 -286
-22 -298
-22 -300
-22 -308
-22 -314
-22 -316
-22 -322
-22 -330
-22 -334
-22 -340
-22 -348
-22 -350
-22 -352
-22 -354
-22 -364
-22 -370
-22 -372
-22 -374
-22 -384
-22 -386
-22 -390
-22 -392
-22 -396
-22 -398
-26 -28
-26 -30
-26 -38
-26 -44
-26 -66
-26 -68
-26 -76
-26 -84
-26 -88
-26 -90
-26 -92
-26 -96
-26 -98
-26 -102
-26 -106
-26 -108
-26 -110
-26 -112
-26 -116
-26 -132
-26 -142
-26 -148
-26 -150
-26 -154
-26 -156
-26 -168
-26 -170
-26 -174
-26 -176
-26 -188
-26 -190
-26 -196
-26 -198
-26 -202
-26 -204
-26 -212
-26 -214
-26 -222
-26 -226
-26 -228
-26 -234
-26 -236
-26 -240
-26 -254
-26 -256
-26 -258
-26 -264
-26 -268
-26 -270
-26 -276
-26 -280
-26 -282
-26 -284
-26 -288
-26 -298
-26 -300
-26 -304
-26 -308
-26 -314
-26 -316
-26 -322
-26 -330
-26 -334
-26 -338
-26 -340
-26 -348
-26 -350
-26 -352
-26 -364
-26 -372
-26 -374
-26 -376
-26 -384
-26 -386
-26 -390
-26 -392
-26 -396
-26 -398
-28 -30
-28 -38
-28 -50
-28 -62
-28 -66
-28 -68
-28 -76
-28 -84
-28 -88
-28 -90
-28 -92
-28 -96
-28 -98
-28 -102
-28 -106
-28 -108
-28 -110
-28 -128
-28 -146
-28 -148
-28 -150
-28 -152
-28 -154
-28 -164
-28 -168
-28 -170
-28 -174
-28 -176
-28 -190
-28 -196
-28 -198
-28 -204
-28 -212
-28 -214
-28 -222
-28 -234
-28 -236
-28 -240
-28 -252
-28 -256
-28 -258
-28 -268
-28 -270
-28 -276
-28 -280
-28 -282
-28 -286
-28 -298
-28 -300
-28 -304
-28 -308
-28 -316
-28 -322
-28 -330
-28 -334
-28 -338
-28 -340
-28 -348
-28 -350
-28 -352
-28 -354
-28 -364
-28 -370
-28 -372
-28 -374
-28 -376
-28 -384
-28 -386
-28 -392
-28 -394
-28 -396
-28 -398
-30 -38
-30 -44
-30 -64
-30 -68
-30 -76
-30 -84
-30 -88
-30 -90
-30 -96
-30 -98
-30 -102
-30 -108
-30 -110
-30 -132
-30 -146
-30 -148
-30 -150
-30 -152
-30 -154
-30 -156
-30 -164
-30 -168
-30 -170
-30 -174
-30 -176
-30 -188
-30 -196
-30 -202
-30 -204
-30 -212
-30 -218
-30 -222
-30 -226
-30 -228
-30 -234
-30 -236
-30 -252
-30 -254
-30 -256
-30 -258
-30 -264
-30 -268
-30 -276
-30 -280
-30 -282
-30 -286
-30 -288
-30 -298
-30 -300
-30 -308
-30 -314
-30 -316
-30 -320
-30 -322
-30 -330
-30 -334
-30 -340
-30 -352
-30 -354
-30 -374
-30 -376
-30 -386
-30 -390
-30 -392
-30 -394
-30 -398
-38 -44
-38 -50
-38 -62
-38 -64
-38 -68
-38 -76
-38 -84
-38 -90
-38 -92
-38 -96
-38 -98
-38 -102
-38 -108
-38 -110
-38 -112
-38 -116
-38 -132
-38 -142
-38 -146
-38 -150
-38 -154
-38 -156
-38 -164
-38 -168
-38 -170
-38 -174
-38 -176
-38 -190
-38 -196
-38 -204
-38 -212
-38 -214
-38 -218
-38 -226
-38 -228
-38 -234
-38 -236
-38 -240
-38 -252
-38 -254
-38 -258
-38 -264
-38 -268
-38 -270
-38 -276
-38 -280
-38 -282
-38 -284
-38 -288
-38 -298
-38 -300
-38 -304
-38 -308
-38 -314
-38 -316
-38 -320
-38 -322
-38 -330
-38 -334
-38 -338
-38 -348
-38 -350
-38 -352
-38 -354
-38 -364
-38 -370
-38 -372
-38 -374
-38 -384
-38 -386
-38 -390
-38 -392
-38 -396
-38 -398
-44 -50
-44 -62
-44 -64
-44 -68
-44 -84
-44 -90
-44 -92
-44 -96
-44 -98
-44 -102
-44 -106
-44 -108
-44 -112
-44 -116
-44 -128
-44 -132
-44 -142
-44 -146
-44 -148
-44 -150
-44 -152
-44 -154
-44 -156
-44 -164
-44 -168
-44 -170
-44 -176
-44 -188
-44 -190
-44 -196
-44 -204
-44 -214
-44 -218
-44 -226
-44 -234
-44 -236
-44 -240
-44 -252
-44 -254
-44 -256
-44 -264
-44 -268
-44 -270
-44 -276
-44 -280
-44 -282
-44 -284
-44 -286
-44 -288
-44 -308
-44 -316
-44 -322
-44 -330
-44 -334
-44 -338
-44 -340
-44 -348
-44 -350
-44 -352
-44 -354
-44 -364
-44 -370
-44 -372
-44 -374
-44 -384
-44 -386
-44 -390
-44 -392
-44 -394
-44 -398
-50 -62
-50 -64
-50 -66
-50 -68
-50 -76
-50 -84
-50 -88
-50 -90
-50 -92
-50 -96
-50 -98
-50 -102
-50 -108
-50 -110
-50 -112
-50 -116
-50 -128
-50 -132
-50 -142
-50 -146
-50 -148
-50 -150
-50 -152
-50 -154
-50 -156
-50 -164
-50 -168
-50 -170
-50 -176
-50 -188
-50 -190
-50 -196
-50 -198
-50 -202
-50 -212
-50 -214
-50 -218
-50 -222
-50 -226
-50 -228
-50 -234
-50 -236
-50 -240
-50 -254
-50 -256
-50 -258
-50 -264
-50 -276
-50 -280
-50 -282
-50 -284
-50 -286
-50 -288
-50 -298
-50 -300
-50 -304
-50 -314
-50 -316
-50 -322
-50 -330
-50 -334
-50 -338
-50 -340
-50 -348
-50 -350
-50 -354
-50 -364
-50 -370
-50 -372
-50 -374
-50 -384
-50 -386
-50 -392
-50 -394
-50 -396
-50 -398
-62 -64
-62 -66
-62 -68
-62 -76
-62 -84
-62 -88
-62 -90
-62 -92
-62 -96
-62 -98
-62 -102
-62 -106
-62 -110
-62 -112
-62 -116
-62 -128
-62 -132
-62 -148
-62 -150
-62 -152
-62 -154
-62 -156
-62 -168
-62 -170
-62 -174
-62 -176
-62 -188
-62 -190
-62 -196
-62 -198
-62 -204
-62 -212
-62 -214
-62 -218
-62 -222
-62 -226
-62 -228
-62 -234
-62 -236
-62 -252
-62 -254
-62 -256
-62 -258
-62 -264
-62 -270
-62 -276
-62 -280
-62 -282
-62 -284
-62 -286
-62 -288
-62 -308
-62 -314
-62 -316
-62 -320
-62 -322
-62 -330
-62 -334
-62 -338
-62 -340
-62 -348
-62 -350
-62 -352
-62 -354
-62 -364
-62 -370
-62 -372
-62 -374
-62 -376
-62 -384
-62 -386
-62 -390
-62 -394
-62 -396
-64 -66
-64 -68
-64 -76
-64 -84
-64 -88
-64 -90
-64 -92
-64 -96
-64 -98
-64 -108
-64 -110
-64 -112
-64 -116
-64 -128
-64 -132
-64 -146
-64 -148
-64 -150
-64 -152
-64 -154
-64 -156
-64 -164
-64 -168
-64 -170
-64 -176
-64 -188
-64 -196
-64 -204
-64 -212
-64 -214
-64 -218
-64 -226
-64 -228
-64 -234
-64 -240
-64 -252
-64 -254
-64 -256
-64 -258
-64 -264
-64 -268
-64 -270
-64 -276
-64 -280
-64 -282
-64 -286
-64 -288
-64 -298
-64 -300
-64 -314
-64 -322
-64 -330
-64 -334
-64 -338
-64 -350
-64 -352
-64 -354
-64 -370
-64 -374
-64 -376
-64 -386
-64 -390
-64 -392
-64 -394
-64 -396
-64 -398
-66 -76
-66 -84
-66 -88
-66 -92
-66 -96
-66 -98
-66 -102
-66 -108
-66 -110
-66 -112
-66 -116
-66 -128
-66 -142
-66 -146
-66 -148
-66 -150
-66 -154
-66 -156
-66 -170
-66 -174
-66 -176
-66 -188
-66 -190
-66 -196
-66 -198
-66 -202
-66 -204
-66 -214
-66 -218
-66 -222
-66 -226
-66 -234
-66 -240
-66 -252
-66 -254
-66 -258
-66 -264
-66 -270
-66 -280
-66 -282
-66 -284
-66 -286
-66 -288
-66 -300
-66 -304
-66 -308
-66 -314
-66 -316
-66 -320
-66 -322
-66 -330
-66 -350
-66 -352
-66 -354
-66 -364
-66 -370
-66 -384
-66 -386
-66 -392
-66 -394
-66 -396
-66 -398
-68 -76
-68 -84
-68 -90
-68 -98
-68 -102
-68 -106
-68 -108
-68 -110
-68 -116
-68 -128
-68 -132
-68 -142
-68 -146
-68 -148
-68 -150
-68 -154
-68 -168
-68 -170
-68 -174
-68 -176
-68 -190
-68 -196
-68 -198
-68 -202
-68 -204
-68 -212
-68 -214
-68 -218
-68 -222
-68 -226
-68 -228
-68 -234
-68 -240
-68 -252
-68 -256
-68 -264
-68 -268
-68 -270
-68 -276
-68 -280
-68 -282
-68 -288
-68 -298
-68 -304
-68 -308
-68 -314
-68 -316
-68 -320
-68 -322
-68 -330
-68 -334
-68 -340
-68 -350
-68 -352
-68 -354
-68 -364
-68 -370
-68 -372
-68 -376
-68 -384
-68 -386
-68 -390
-68 -392
-68 -394
-68 -398
-76 -84
-76 -88
-76 -90
-76 -92
-76 -96
-76 -98
-76 -102
-76 -106
-76 -108
-76 -112
-76 -128
-76 -132
-76 -142
-76 -148
-76 -150
-76 -152
-76 -154
-76 -156
-76 -164
-76 -170
-76 -176
-76 -188
-76 -190
-76 -196
-76 -198
-76 -202
-76 -204
-76 -214
-76 -218
-76 -226
-76 -228
-76 -234
-76 -236
-76 -240
-76 -254
-76 -256
-76 -258
-76 -264
-76 -270
-76 -280
-76 -284
-76 -286
-76 -288
-76 -298
-76 -300
-76 -308
-76 -314
-76 -316
-76 -320
-76 -322
-76 -330
-76 -334
-76 -340
-76 -348
-76 -350
-76 -354
-76 -364
-76 -370
-76 -372
-76 -376
-76 -384
-76 -386
-76 -390
-76 -392
-76 -396
-76 -398
-84 -88
-84 -90
-84 -92
-84 -96
-84 -98
-84 -102
-84 -106
-84 -108
-84 -110
-84 -112
-84 -116
-84 -128
-84 -132
-84 -142
-84 -146
-84 -152
-84 -154
-84 -156
-84 -164
-84 -168
-84 -170
-84 -174
-84 -176
-84 -188
-84 -190
-84 -196
-84 -198
-84 -202
-84 -212
-84 -214
-84 -218
-84 -222
-84 -226
-84 -228
-84 -234
-84 -240
-84 -252
-84 -254
-84 -258
-84 -264
-84 -268
-84 -270
-84 -276
-84 -280
-84 -282
-84 -284
-84 -288
-84 -298
-84 -300
-84 -304
-84 -308
-84 -314
-84 -316
-84 -320
-84 -330
-84 -338
-84 -340
-84 -350
-84 -352
-84 -354
-84 -370
-84 -372
-84 -374
-84 -376
-84 -384
-84 -386
-84 -390
-84 -392
-84 -394
-88 -90
-88 -92
-88 -98
-88 -102
-88 -106
-88 -110
-88 -112
-88 -116
-88 -142
-88 -146
-88 -148
-88 -152
-88 -154
-88 -156
-88 -164
-88 -168
-88 -170
-88 -188
-88 -196
-88 -198
-88 -202
-88 -204
-88 -212
-88 -214
-88 -218
-88 -222
-88 -226
-88 -234
-88 -236
-88 -252
-88 -254
-88 -256
-88 -264
-88 -268
-88 -270
-88 -276
-88 -280
-88 -282
-88 -284
-88 -286
-88 -288
-88 -298
-88 -304
-88 -308
-88 -314
-88 -316
-88 -320
-88 -322
-88 -330
-88 -334
-88 -338
-88 -340
-88 -348
-88 -350
-88 -352
-88 -364
-88 -374
-88 -376
-88 -384
-88 -390
-88 -392
-88 -394
-88 -398
-90 -92
-90 -98
-90 -102
-90 -106
-90 -108
-90 -110
-90 -112
-90 -116
-90 -128
-90 -142
-90 -148
-90 -150
-90 -152
-90 -154
-90 -156
-90 -164
-90 -168
-90 -170
-90 -174
-90 -176
-90 -188
-90 -196
-90 -198
-90 -202
-90 -204
-90 -214
-90 -226
-90 -234
-90 -236
-90 -240
-90 -252
-90 -254
-90 -256
-90 -258
-90 -264
-90 -268
-90 -270
-90 -276
-90 -280
-90 -282
-90 -284
-90 -286
-90 -288
-90 -298
-90 -300
-90 -304
-90 -308
-90 -314
-90 -316
-90 -320
-90 -330
-90 -334
-90 -338
-90 -340
-90 -348
-90 -350
-90 -354
-90 -364
-90 -370
-90 -372
-90 -374
-90 -376
-90 -384
-90 -386
-90 -390
-90 -392
-90 -394
-90 -396
-90 -398
-92 -98
-92 -102
-92 -106
-92 -108
-92 -110
-92 -112
-92 -132
-92 -142
-92 -146
-92 -148
-92 -150
-92 -152
-92 -154
-92 -156
-92 -168
-92 -170
-92 -174
-92 -176
-92 -188
-92 -190
-92 -196
-92 -198
-92 -202
-92 -204
-92 -212
-92 -214
-92 -218
-92 -222
-92 -228
-92 -234
-92 -236
-92 -240
-92 -256
-92 -258
-92 -270
-92 -276
-92 -282
-92 -284
-92 -286
-92 -288
-92 -298
-92 -300
-92 -304
-92 -308
-92 -314
-92 -316
-92 -322
-92 -338
-92 -340
-92 -348
-92 -350
-92 -352
-92 -354
-92 -370
-92 -372
-92 -374
-92 -376
-92 -384
-92 -386
-92 -390
-92 -392
-92 -394
-92 -398
-96 -98
-96 -102
-96 -106
-96 -108
-96 -110
-96 -112
-96 -116
-96 -128
-96 -132
-96 -146
-96 -148
-96 -152
-96 -154
-96 -156
-96 -170
-96 -190
-96 -196
-96 -198
-96 -202
-96 -212
-96 -218
-96 -222
-96 -226
-96 -228
-96 -234
-96 -236
-96 -240
-96 -252
-96 -256
-96 -258
-96 -264
-96 -268
-96 -270
-96 -276
-96 -284
-96 -286
-96 -288
-96 -298
-96 -300
-96 -304
-96 -308
-96 -314
-96 -316
-96 -322
-96 -330
-96 -340
-96 -348
-96 -350
-96 -352
-96 -354
-96 -370
-96 -372
-96 -374
-96 -376
-96 -386
-96 -390
-96 -392
-96 -398
-98 -106
-98 -110
-98 -112
-98 -116
-98 -128
-98 -132
-98 -142
-98 -146
-98 -150
-98 -152
-98 -154
-98 -156
-98 -164
-98 -176
-98 -188
-98 -190
-98 -196
-98 -198
-98 -204
-98 -212
-98 -214
-98 -218
-98 -222
-98 -226
-98 -228
-98 -236
-98 -252
-98 -254
-98 -258
-98 -264
-98 -268
-98 -270
-98 -276
-98 -280
-98 -282
-98 -284
-98 -286
-98 -288
-98 -300
-98 -304
-98 -308
-98 -314
-98 -316
-98 -320
-98 -322
-98 -330
-98 -334
-98 -338
-98 -340
-98 -350
-98 -352
-98 -354
-98 -364
-98 -370
-98 -372
-98 -376
-98 -386
-98 -390
-98 -392
-98 -394
-98 -398
-102 -106
-102 -108
-102 -112
-102 -116
-102 -128
-102 -132
-102 -142
-102 -146
-102 -150
-102 -152
-102 -154
-102 -156
-102 -164
-102 -168
-102 -170
-102 -174
-102 -176
-102 -188
-102 -190
-102 -196
-102 -198
-102 -202
-102 -204
-102 -212
-102 -214
-102 -218
-102 -228
-102 -234
-102 -240
-102 -252
-102 -254
-102 -256
-102 -258
-102 -264
-102 -268
-102 -270
-102 -276
-102 -280
-102 -282
-102 -284
-102 -286
-102 -288
-102 -298
-102 -304
-102 -308
-102 -314
-102 -316
-102 -322
-102 -330
-102 -334
-102 -338
-102 -340
-102 -348
-102 -352
-102 -354
-102 -364
-102 -370
-102 -372
-102 -374
-102 -376
-102 -384
-102 -386
-102 -394
-102 -398
-106 -108
-106 -110
-106 -112
-106 -128
-106 -132
-106 -142
-106 -146
-106 -148
-106 -152
-106 -154
-106 -164
-106 -168
-106 -170
-106 -174
-106 -176
-106 -188
-106 -190
-106 -196
-106 -198
-106 -202
-106 -204
-106 -212
-106 -214
-106 -218
-106 -222
-106 -226
-106 -228
-106 -234
-106 -236
-106 -240
-106 -256
-106 -264
-106 -270
-106 -276
-106 -280
-106 -282
-106 -284
-106 -286
-106 -288
-106 -298
-106 -300
-106 -304
-106 -308
-106 -314
-106 -316
-106 -320
-106 -322
-106 -330
-106 -338
-106 -340
-106 -350
-106 -354
-106 -364
-106 -370
-106 -372
-106 -374
-106 -376
-106 -384
-106 -386
-106 -390
-106 -392
-106 -394
-106 -396
-106 -398
-108 -116
-108 -128
-108 -142
-108 -146
-108 -150
-108 -152
-108 -154
-108 -156
-108 -164
-108 -168
-108 -170
-108 -174
-108 -176
-108 -190
-108 -196
-108 -198
-108 -202
-108 -204
-108 -212
-108 -218
-108 -222
-108 -236
-108 -240
-108 -252
-108 -254
-108 -256
-108 -268
-108 -270
-108 -282
-108 -286
-108 -288
-108 -300
-108 -304
-108 -308
-108 -314
-108 -316
-108 -320
-108 -322
-108 -330
-108 -338
-108 -340
-108 -348
-108 -350
-108 -352
-108 -354
-108 -364
-108 -370
-108 -374
-108 -376
-108 -384
-108 -386
-108 -394
-108 -396
-108 -398
-110 -112
-110 -116
-110 -128
-110 -132
-110 -142
-110 -146
-110 -148
-110 -150
-110 -152
-110 -156
-110 -164
-110 -170
-110 -174
-110 -176
-110 -190
-110 -196
-110 -198
-110 -202
-110 -204
-110 -214
-110 -218
-110 -222
-110 -226
-110 -228
-110 -236
-110 -240
-110 -252
-110 -254
-110 -256
-110 -258
-110 -268
-110 -276
-110 -284
-110 -286
-110 -288
-110 -298
-110 -300
-110 -308
-110 -316
-110 -320
-110 -322
-110 -330
-110 -338
-110 -340
-110 -348
-110 -354
-110 -364
-110 -370
-110 -372
-110 -374
-110 -376
-110 -384
-110 -386
-110 -390
-110 -394
-110 -396
-110 -398
-112 -128
-112 -132
-112 -142
-112 -146
-112 -148
-112 -152
-112 -154
-112 -156
-112 -168
-112 -174
-112 -188
-112 -190
-112 -196
-112 -198
-112 -202
-112 -212
-112 -214
-112 -222
-112 -226
-112 -228
-112 -234
-112 -236
-112 -240
-112 -256
-112 -258
-112 -264
-112 -270
-112 -276
-112 -280
-112 -282
-112 -284
-112 -286
-112 -300
-112 -304
-112 -314
-112 -316
-112 -320
-112 -322
-112 -330
-112 -334
-112 -338
-112 -340
-112 -350
-112 -352
-112 -354
-112 -364
-112 -370
-112 -372
-112 -384
-112 -386
-112 -390
-112 -392
-112 -394
-112 -398
-116 -128
-116 -132
-116 -142
-116 -146
-116 -148
-116 -150
-116 -154
-116 -156
-116 -164
-116 -170
-116 -174
-116 -176
-116 -190
-116 -196
-116 -198
-116 -202
-116 -204
-116 -212
-116 -222
-116 -226
-116 -234
-116 -236
-116 -240
-116 -252
-116 -254
-116 -256
-116 -258
-116 -264
-116 -268
-116 -280
-116 -284
-116 -286
-116 -288
-116 -300
-116 -304
-116 -308
-116 -314
-116 -320
-116 -322
-116 -330
-116 -338
-116 -340
-116 -348
-116 -352
-116 -354
-116 -364
-116 -370
-116 -372
-116 -374
-116 -376
-116 -384
-116 -386
-116 -392
-116 -394
-116 -396
-128 -142
-128 -146
-128 -148
-128 -150
-128 -152
-128 -154
-128 -164
-128 -168
-128 -170
-128 -174
-128 -176
-128 -188
-128 -196
-128 -202
-128 -204
-128 -212
-128 -214
-128 -222
-128 -226
-128 -228
-128 -234
-128 -236
-128 -240
-128 -252
-128 -254
-128 -256
-128 -258
-128 -264
-128 -268
-128 -270
-128 -280
-128 -282
-128 -284
-128 -286
-128 -288
-128 -298
-128 -300
-128 -304
-128 -308
-128 -314
-128 -316
-128 -322
-128 -338
-128 -340
-128 -350
-128 -352
-128 -364
-128 -370
-128 -372
-128 -374
-128 -376
-128 -386
-128 -390
-128 -392
-128 -394
-128 -398
-132 -142
-132 -148
-132 -150
-132 -152
-132 -154
-132 -156
-132 -164
-132 -168
-132 -174
-132 -176
-132 -188
-132 -190
-132 -196
-132 -198
-132 -202
-132 -204
-132 -212
-132 -214
-132 -218
-132 -226
-132 -234
-132 -252
-132 -254
-132 -256
-132 -258
-132 -264
-132 -268
-132 -270
-132 -280
-132 -282
-132 -286
-132 -288
-132 -298
-132 -308
-132 -314
-132 -316
-132 -320
-132 -322
-132 -330
-132 -334
-132 -338
-132 -340
-132 -348
-132 -352
-132 -354
-132 -364
-132 -370
-132 -372
-132 -374
-132 -392
-132 -394
-132 -396
-132 -398
-142 -146
-142 -148
-142 -150
-142 -154
-142 -156
-142 -174
-142 -176
-142 -188
-142 -190
-142 -196
-142 -198
-142 -202
-142 -204
-142 -212
-142 -214
-142 -218
-142 -222
-142 -226
-142 -228
-142 -234
-142 -236
-142 -240
-142 -252
-142 -254
-142 -256
-142 -258
-142 -264
-142 -268
-142 -270
-142 -286
-142 -288
-142 -298
-142 -300
-142 -304
-142 -308
-142 -314
-142 -316
-142 -322
-142 -330
-142 -334
-142 -338
-142 -340
-142 -350
-142 -352
-142 -354
-142 -364
-142 -370
-142 -372
-142 -374
-142 -376
-142 -384
-142 -386
-142 -390
-142 -392
-142 -394
-142 -396
-142 -398
-146 -152
-146 -154
-146 -156
-146 -164
-146 -168
-146 -170
-146 -174
-146 -176
-146 -188
-146 -190
-146 -198
-146 -202
-146 -212
-146 -214
-146 -222
-146 -226
-146 -228
-146 -234
-146 -240
-146 -254
-146 -256
-146 -264
-146 -268
-146 -270
-146 -276
-146 -280
-146 -282
-146 -284
-146 -286
-146 -288
-146 -298
-146 -300
-146 -304
-146 -308
-146 -316
-146 -320
-146 -322
-146 -330
-146 -334
-146 -338
-146 -340
-146 -348
-146 -352
-146 -354
-146 -364
-146 -370
-146 -372
-146 -376
-146 -384
-146 -386
-146 -390
-146 -392
-146 -394
-146 -396
-146 -398
-148 -150
-148 -152
-148 -154
-148 -164
-148 -168
-148 -170
-148 -174
-148 -176
-148 -188
-148 -190
-148 -196
-148 -198
-148 -202
-148 -212
-148 -214
-148 -218
-148 -222
-148 -226
-148 -228
-148 -236
-148 -240
-148 -252
-148 -254
-148 -256
-148 -258
-148 -264
-148 -268
-148 -270
-148 -280
-148 -282
-148 -286
-148 -288
-148 -298
-148 -304
-148 -308
-148 -314
-148 -316
-148 -330
-148 -334
-148 -338
-148 -340
-148 -348
-148 -350
-148 -354
-148 -364
-148 -370
-148 -372
-148 -374
-148 -384
-148 -386
-148 -390
-148 -394
-148 -396
-148 -398
-150 -152
-150 -154
-150 -156
-150 -164
-150 -168
-150 -170
-150 -174
-150 -190
-150 -198
-150 -202
-150 -204
-150 -212
-150 -214
-150 -218
-150 -222
-150 -226
-150 -228
-150 -234
-150 -236
-150 -240
-150 -252
-150 -254
-150 -256
-150 -258
-150 -264
-150 -268
-150 -270
-150 -280
-150 -282
-150 -284
-150 -286
-150 -288
-150 -298
-150 -300
-150 -314
-150 -316
-150 -320
-150 -322
-150 -330
-150 -338
-150 -340
-150 -348
-150 -352
-150 -364
-150 -372
-150 -374
-150 -384
-150 -386
-150 -390
-150 -392
-150 -394
-150 -396
-150 -398
-152 -154
-152 -156
-152 -164
-152 -168
-152 -170
-152 -174
-152 -176
-152 -188
-152 -190
-152 -196
-152 -198
-152 -202
-152 -204
-152 -212
-152 -218
-152 -226
-152 -228
-152 -234
-152 -240
-152 -254
-152 -264
-152 -268
-152 -270
-152 -276
-152 -280
-152 -282
-152 -284
-152 -286
-152 -288
-152 -298
-152 -300
-152 -304
-152 -308
-152 -320
-152 -322
-152 -330
-152 -334
-152 -338
-152 -340
-152 -348
-152 -350
-152 -352
-152 -354
-152 -364
-152 -370
-152 -372
-152 -374
-152 -376
-152 -384
-152 -386
-152 -390
-152 -392
-152 -396
-152 -398
-154 -156
-154 -164
-154 -168
-154 -170
-154 -174
-154 -176
-154 -188
-154 -190
-154 -196
-154 -202
-154 -204
-154 -212
-154 -214
-154 -222
-154 -226
-154 -228
-154 -234
-154 -236
-154 -240
-154 -252
-154 -254
-154 -256
-154 -264
-154 -268
-154 -270
-154 -276
-154 -282
-154 -284
-154 -286
-154 -288
-154 -298
-154 -300
-154 -304
-154 -308
-154 -314
-154 -316
-154 -322
-154 -330
-154 -334
-154 -338
-154 -340
-154 -364
-154 -372
-154 -374
-154 -376
-154 -384
-154 -386
-154 -390
-154 -394
-154 -396
-154 -398
-156 -164
-156 -170
-156 -174
-156 -176
-156 -188
-156 -190
-156 -196
-156 -198
-156 -202
-156 -204
-156 -214
-156 -218
-156 -226
-156 -228
-156 -234
-156 -236
-156 -240
-156 -252
-156 -254
-156 -258
-156 -268
-156 -270
-156 -276
-156 -280
-156 -282
-156 -284
-156 -286
-156 -288
-156 -298
-156 -300
-156 -304
-156 -308
-156 -314
-156 -316
-156 -320
-156 -330
-156 -338
-156 -340
-156 -348
-156 -350
-156 -352
-156 -354
-156 -364
-156 -370
-156 -372
-156 -374
-156 -376
-156 -390
-156 -392
-156 -394
-156 -396
-156 -398
-164 -168
-164 -170
-164 -176
-164 -190
-164 -198
-164 -202
-164 -218
-164 -226
-164 -228
-164 -234
-164 -236
-164 -240
-164 -252
-164 -258
-164 -268
-164 -276
-164 -282
-164 -298
-164 -300
-164 -304
-164 -308
-164 -314
-164 -316
-164 -320
-164 -322
-164 -330
-164 -334
-164 -338
-164 -340
-164 -348
-164 -350
-164 -352
-164 -354
-164 -370
-164 -372
-164 -374
-164 -376
-164 -384
-164 -386
-164 -390
-164 -392
-164 -394
-164 -396
-164 -398
-168 -174
-168 -176
-168 -188
-168 -196
-168 -198
-168 -202
-168 -204
-168 -212
-168 -222
-168 -226
-168 -234
-168 -240
-168 -252
-168 -254
-168 -256
-168 -258
-168 -268
-168 -270
-168 -276
-168 -280
-168 -282
-168 -284
-168 -286
-168 -298
-168 -300
-168 -304
-168 -308
-168 -320
-168 -322
-168 -330
-168 -334
-168 -338
-168 -340
-168 -348
-168 -350
-168 -352
-168 -364
-168 -372
-168 -374
-168 -376
-168 -386
-168 -392
-168 -398
-170 -174
-170 -176
-170 -188
-170 -196
-170 -198
-170 -202
-170 -204
-170 -212
-170 -214
-170 -222
-170 -226
-170 -228
-170 -240
-170 -252
-170 -268
-170 -270
-170 -276
-170 -280
-170 -282
-170 -284
-170 -300
-170 -304
-170 -308
-170 -316
-170 -320
-170 -322
-170 -330
-170 -334
-170 -348
-170 -350
-170 -352
-170 -354
-170 -364
-170 -370
-170 -372
-170 -376
-170 -384
-170 -386
-170 -390
-170 -392
-170 -394
-170 -396
-170 -398
-174 -176
-174 -188
-174 -190
-174 -196
-174 -198
-174 -202
-174 -212
-174 -214
-174 -222
-174 -226
-174 -228
-174 -234
-174 -236
-174 -240
-174 -252
-174 -254
-174 -258
-174 -264
-174 -268
-174 -270
-174 -276
-174 -280
-174 -282
-174 -284
-174 -286
-174 -288
-174 -300
-174 -304
-174 -308
-174 -316
-174 -320
-174 -322
-174 -330
-174 -338
-174 -340
-174 -348
-174 -350
-174 -352
-174 -354
-174 -364
-174 -370
-174 -374
-174 -376
-174 -384
-174 -392
-174 -394
-176 -188
-176 -190
-176 -196
-176 -198
-176 -202
-176 -204
-176 -212
-176 -214
-176 -218
-176 -222
-176 -226
-176 -228
-176 -234
-176 -236
-176 -252
-176 -254
-176 -256
-176 -264
-176 -268
-176 -276
-176 -282
-176 -284
-176 -286
-176 -288
-176 -298
-176 -300
-176 -304
-176 -308
-176 -314
-176 -320
-176 -322
-176 -330
-176 -334
-176 -338
-176 -340
-176 -348
-176 -350
-176 -352
-176 -354
-176 -364
-176 -370
-176 -372
-176 -374
-176 -376
-176 -384
-176 -390
-176 -394
-176 -396
-176 -398
-188 -198
-188 -204
-188 -212
-188 -214
-188 -218
-188 -222
-188 -228
-188 -236
-188 -240
-188 -252
-188 -254
-188 -256
-188 -270
-188 -280
-188 -284
-188 -286
-188 -288
-188 -298
-188 -304
-188 -316
-188 -320
-188 -322
-188 -330
-188 -338
-188 -340
-188 -350
-188 -352
-188 -354
-188 -364
-188 -370
-188 -372
-188 -374
-188 -386
-188 -390
-188 -392
-188 -396
-188 -398
-190 -196
-190 -202
-190 -222
-190 -236
-190 -254
-190 -256
-190 -258
-190 -264
-190 -270
-190 -276
-190 -284
-190 -286
-190 -300
-190 -304
-190 -308
-190 -316
-190 -320
-190 -322
-190 -330
-190 -334
-190 -338
-190 -340
-190 -348
-190 -350
-190 -352
-190 -354
-190 -364
-190 -370
-190 -372
-190 -374
-190 -376
-190 -384
-190 -386
-190 -390
-190 -392
-190 -394
-190 -396
-196 -198
-196 -202
-196 -204
-196 -212
-196 -218
-196 -222
-196 -226
-196 -228
-196 -234
-196 -236
-196 -240
-196 -252
-196 -256
-196 -258
-196 -264
-196 -268
-196 -270
-196 -276
-196 -280
-196 -282
-196 -284
-196 -286
-196 -298
-196 -300
-196 -308
-196 -316
-196 -322
-196 -330
-196 -334
-196 -338
-196 -348
-196 -352
-196 -354
-196 -364
-196 -370
-196 -372
-196 -374
-196 -386
-196 -390
-196 -392
-196 -396
-196 -398
-198 -202
-198 -212
-198 -214
-198 -218
-198 -222
-198 -226
-198 -234
-198 -236
-198 -240
-198 -252
-198 -254
-198 -256
-198 -264
-198 -268
-198 -270
-198 -276
-198 -280
-198 -282
-198 -284
-198 -298
-198 -300
-198 -304
-198 -314
-198 -330
-198 -340
-198 -348
-198 -350
-198 -352
-198 -354
-198 -364
-198 -372
-198 -374
-198 -376
-198 -384
-198 -390
-198 -392
-198 -394
-198 -396
-198 -398
-202 -204
-202 -212
-202 -218
-202 -226
-202 -228
-202 -234
-202 -236
-202 -240
-202 -252
-202 -254
-202 -258
-202 -264
-202 -268
-202 -270
-202 -276
-202 -280
-202 -282
-202 -284
-202 -286
-202 -288
-202 -298
-202 -300
-202 -304
-202 -308
-202 -314
-202 -316
-202 -320
-202 -322
-202 -334
-202 -338
-202 -340
-202 -348
-202 -350
-202 -352
-202 -354
-202 -364
-202 -370
-202 -372
-202 -374
-202 -376
-202 -384
-202 -386
-202 -390
-202 -394
-202 -396
-202 -398
-204 -212
-204 -214
-204 -218
-204 -222
-204 -226
-204 -228
-204 -234
-204 -236
-204 -240
-204 -264
-204 -268
-204 -270
-204 -276
-204 -280
-204 -282
-204 -284
-204 -286
-204 -298
-204 -308
-204 -320
-204 -322
-204 -334
-204 -338
-204 -350
-204 -352
-204 -364
-204 -370
-204 -372
-204 -384
-204 -386
-204 -392
-204 -394
-204 -396
-212 -214
-212 -222
-212 -226
-212 -228
-212 -234
-212 -236
-212 -240
-212 -252
-212 -254
-212 -256
-212 -258
-212 -264
-212 -268
-212 -280
-212 -282
-212 -286
-212 -288
-212 -298
-212 -300
-212 -304
-212 -308
-212 -314
-212 -320
-212 -322
-212 -330
-212 -338
-212 -340
-212 -348
-212 -350
-212 -352
-212 -372
-212 -374
-212 -384
-212 -386
-212 -390
-212 -392
-212 -394
-212 -396
-214 -222
-214 -228
-214 -236
-214 -240
-214 -252
-214 -254
-214 -256
-214 -264
-214 -268
-214 -270
-214 -276
-214 -280
-214 -282
-214 -298
-214 -300
-214 -304
-214 -308
-214 -314
-214 -316
-214 -320
-214 -334
-214 -340
-214 -348
-214 -350
-214 -352
-214 -354
-214 -364
-214 -370
-214 -376
-214 -384
-214 -386
-214 -390
-214 -392
-214 -396
-214 -398
-218 -222
-218 -226
-218 -228
-218 -234
-218 -236
-218 -240
-218 -252
-218 -254
-218 -256
-218 -264
-218 -268
-218 -270
-218 -280
-218 -284
-218 -286
-218 -288
-218 -298
-218 -300
-218 -304
-218 -308
-218 -316
-218 -320
-218 -322
-218 -330
-218 -338
-218 -348
-218 -352
-218 -354
-218 -364
-218 -370
-218 -372
-218 -374
-218 -376
-218 -386
-218 -392
-218 -394
-218 -396
-218 -398
-222 -226
-222 -228
-222 -234
-222 -236
-222 -240
-222 -252
-222 -254
-222 -256
-222 -258
-222 -264
-222 -268
-222 -270
-222 -276
-222 -280
-222 -282
-222 -284
-222 -286
-222 -288
-222 -298
-222 -300
-222 -308
-222 -314
-222 -316
-222 -320
-222 -322
-222 -330
-222 -334
-222 -338
-222 -340
-222 -348
-222 -350
-222 -352
-222 -354
-222 -364
-222 -370
-222 -372
-222 -374
-222 -376
-222 -386
-222 -392
-222 -396
-222 -398
-226 -228
-226 -234
-226 -236
-226 -240
-226 -252
-226 -254
-226 -270
-226 -276
-226 -280
-226 -282
-226 -288
-226 -298
-226 -300
-226 -304
-226 -308
-226 -314
-226 -316
-226 -320
-226 -330
-226 -338
-226 -340
-226 -348
-226 -350
-226 -352
-226 -354
-226 -364
-226 -370
-226 -372
-226 -374
-226 -376
-226 -384
-226 -390
-226 -392
-226 -394
-226 -396
-226 -398
-228 -236
-228 -240
-228 -252
-228 -254
-228 -258
-228 -264
-228 -268
-228 -270
-228 -276
-228 -280
-228 -282
-228 -284
-228 -286
-228 -300
-228 -304
-228 -308
-228 -314
-228 -316
-228 -320
-228 -322
-228 -330
-228 -334
-228 -338
-228 -340
-228 -348
-228 -350
-228 -352
-228 -354
-228 -364
-228 -370
-228 -372
-228 -374
-228 -376
-228 -384
-228 -386
-228 -390
-228 -392
-228 -394
-228 -396
-228 -398
-234 -236
-234 -240
-234 -252
-234 -254
-234 -256
-234 -258
-234 -268
-234 -276
-234 -280
-234 -282
-234 -284
-234 -286
-234 -288
-234 -298
-234 -300
-234 -304
-234 -308
-234 -314
-234 -316
-234 -320
-234 -322
-234 -338
-234 -340
-234 -348
-234 -350
-234 -352
-234 -354
-234 -370
-234 -372
-234 -374
-234 -376
-234 -384
-234 -386
-234 -390
-234 -392
-234 -396
-234 -398
-236 -240
-236 -252
-236 -254
-236 -258
-236 -264
-236 -268
-236 -270
-236 -276
-236 -280
-236 -282
-236 -284
-236 -286
-236 -288
-236 -298
-236 -300
-236 -304
-236 -308
-236 -314
-236 -316
-236 -320
-236 -322
-236 -330
-236 -334
-236 -338
-236 -340
-236 -350
-236 -352
-236 -354
-236 -364
-236 -370
-236 -372
-236 -376
-236 -386
-236 -390
-236 -394
-236 -396
-236 -398
-240 -252
-240 -254
-240 -256
-240 -258
-240 -264
-240 -268
-240 -270
-240 -276
-240 -280
-240 -282
-240 -286
-240 -288
-240 -300
-240 -304
-240 -308
-240 -314
-240 -320
-240 -322
-240 -334
-240 -338
-240 -340
-240 -348
-240 -352
-240 -364
-240 -370
-240 -372
-240 -376
-240 -384
-240 -386
-240 -390
-240 -392
-240 -394
-240 -396
-252 -254
-252 -256
-252 -258
-252 -264
-252 -268
-252 -270
-252 -276
-252 -282
-252 -284
-252 -286
-252 -288
-252 -308
-252 -314
-252 -316
-252 -320
-252 -322
-252 -330
-252 -338
-252 -340
-252 -348
-252 -350
-252 -352
-252 -364
-252 -370
-252 -372
-252 -374
-252 -376
-252 -386
-252 -390
-252 -392
-252 -394
-252 -396
-252 -398
-254 -256
-254 -258
-254 -264
-254 -268
-254 -270
-254 -276
-254 -280
-254 -282
-254 -284
-254 -286
-254 -288
-254 -300
-254 -308
-254 -314
-254 -316
-254 -320
-254 -322
-254 -330
-254 -350
-254 -354
-254 -364
-254 -370
-254 -376
-254 -384
-254 -386
-254 -392
-254 -398
-256 -258
-256 -264
-256 -268
-256 -276
-256 -280
-256 -286
-256 -288
-256 -300
-256 -304
-256 -308
-256 -314
-256 -316
-256 -320
-256 -322
-256 -334
-256 -340
-256 -348
-256 -352
-256 -354
-256 -364
-256 -370
-256 -372
-256 -374
-256 -376
-256 -384
-256 -386
-256 -390
-256 -392
-256 -394
-256 -398
-258 -264
-258 -268
-258 -280
-258 -282
-258 -284
-258 -286
-258 -288
-258 -298
-258 -300
-258 -304
-258 -308
-258 -314
-258 -320
-258 -322
-258 -330
-258 -338
-258 -340
-258 -348
-258 -350
-258 -352
-258 -354
-258 -364
-258 -370
-258 -372
-258 -374
-258 -376
-258 -384
-258 -386
-258 -390
-258 -392
-258 -394
-258 -396
-258 -398
-264 -276
-264 -280
-264 -284
-264 -286
-264 -288
-264 -298
-264 -314
-264 -316
-264 -320
-264 -322
-264 -330
-264 -334
-264 -338
-264 -348
-264 -352
-264 -354
-264 -364
-264 -372
-264 -374
-264 -376
-264 -384
-264 -392
-264 -394
-264 -398
-268 -270
-268 -276
-268 -280
-268 -282
-268 -284
-268 -288
-268 -298
-268 -300
-268 -304
-268 -308
-268 -316
-268 -320
-268 -338
-268 -348
-268 -350
-268 -352
-268 -354
-268 -364
-268 -370
-268 -372
-268 -374
-268 -376
-268 -384
-268 -390
-268 -392
-268 -394
-268 -396
-268 -398
-270 -276
-270 -280
-270 -282
-270 -284
-270 -286
-270 -288
-270 -298
-270 -300
-270 -304
-270 -308
-270 -314
-270 -316
-270 -320
-270 -322
-270 -330
-270 -334
-270 -338
-270 -340
-270 -348
-270 -350
-270 -352
-270 -354
-270 -364
-270 -370
-270 -372
-270 -374
-270 -376
-270 -384
-270 -386
-270 -390
-270 -392
-270 -394
-270 -396
-270 -398
-276 -280
-276 -282
-276 -284
-276 -286
-276 -288
-276 -298
-276 -300
-276 -304
-276 -314
-276 -316
-276 -320
-276 -322
-276 -330
-276 -334
-276 -338
-276 -340
-276 -348
-276 -354
-276 -364
-276 -370
-276 -372
-276 -374
-276 -376
-276 -386
-276 -390
-276 -392
-276 -394
-276 -396
-276 -398
-280 -282
-280 -284
-280 -288
-280 -298
-280 -300
-280 -304
-280 -308
-280 -314
-280 -316
-280 -320
-280 -322
-280 -330
-280 -338
-280 -340
-280 -352
-280 -354
-280 -370
-280 -372
-280 -374
-280 -376
-280 -384
-280 -386
-280 -390
-280 -392
-280 -394
-280 -396
-280 -398
-282 -284
-282 -286
-282 -298
-282 -304
-282 -308
-282 -316
-282 -320
-282 -322
-282 -330
-282 -334
-282 -340
-282 -348
-282 -350
-282 -352
-282 -354
-282 -364
-282 -370
-282 -372
-282 -374
-282 -376
-282 -384
-282 -386
-282 -392
-282 -394
-282 -396
-282 -398
-284 -286
-284 -288
-284 -298
-284 -300
-284 -304
-284 -308
-284 -316
-284 -320
-284 -322
-284 -334
-284 -338
-284 -340
-284 -348
-284 -350
-284 -352
-284 -364
-284 -370
-284 -372
-284 -374
-284 -376
-284 -384
-284 -390
-284 -392
-284 -394
-284 -396
-284 -398
-286 -288
-286 -300
-286 -304
-286 -308
-286 -316
-286 -320
-286 -330
-286 -334
-286 -348
-286 -352
-286 -354
-286 -364
-286 -370
-286 -372
-286 -374
-286 -376
-286 -384
-286 -386
-286 -390
-286 -392
-286 -394
-286 -396
-286 -398
-288 -298
-288 -300
-288 -304
-288 -308
-288 -314
-288 -316
-288 -322
-288 -330
-288 -338
-288 -340
-288 -348
-288 -350
-288 -352
-288 -354
-288 -370
-288 -374
-288 -376
-288 -384
-288 -386
-288 -390
-288 -394
-288 -396
-298 -304
-298 -308
-298 -320
-298 -322
-298 -330
-298 -334
-298 -338
-298 -340
-298 -348
-298 -352
-298 -354
-298 -370
-298 -374
-298 -386
-298 -390
-298 -392
-298 -394
-298 -396
-298 -398
-300 -304
-300 -308
-300 -314
-300 -320
-300 -330
-300 -334
-300 -338
-300 -340
-300 -348
-300 -354
-300 -364
-300 -370
-300 -372
-300 -374
-300 -376
-300 -386
-300 -390
-300 -392
-300 -394
-300 -398
-304 -308
-304 -316
-304 -320
-304 -322
-304 -334
-304 -338
-304 -348
-304 -350
-304 -352
-304 -354
-304 -364
-304 -370
-304 -372
-304 -374
-304 -376
-304 -386
-304 -390
-304 -392
-304 -394
-304 -396
-304 -398
-308 -316
-308 -320
-308 -322
-308 -330
-308 -334
-308 -338
-308 -340
-308 -348
-308 -350
-308 -352
-308 -354
-308 -370
-308 -372
-308 -374
-308 -376
-308 -384
-308 -386
-308 -392
-308 -394
-308 -396
-308 -398
-314 -316
-314 -322
-314 -334
-314 -338
-314 -350
-314 -352
-314 -354
-314 -364
-314 -370
-314 -372
-314 -374
-314 -376
-314 -384
-314 -390
-314 -392
-314 -394
-314 -396
-314 -398
-316 -322
-316 -330
-316 -334
-316 -338
-316 -340
-316 -348
-316 -352
-316 -354
-316 -364
-316 -370
-316 -372
-316 -374
-316 -376
-316 -384
-316 -386
-316 -390
-316 -392
-316 -394
-316 -398
-320 -322
-320 -330
-320 -334
-320 -338
-320 -348
-320 -350
-320 -352
-320 -354
-320 -364
-320 -370
-320 -374
-320 -376
-320 -386
-320 -390
-320 -392
-320 -394
-320 -396
-322 -330
-322 -334
-322 -338
-322 -340
-322 -352
-322 -354
-322 -370
-322 -372
-322 -374
-322 -376
-322 -384
-322 -386
-322 -390
-322 -392
-322 -394
-322 -396
-330 -334
-330 -338
-330 -340
-330 -348
-330 -352
-330 -354
-330 -364
-330 -370
-330 -372
-330 -376
-330 -384
-330 -386
-330 -390
-330 -392
-330 -394
-330 -396
-330 -398
-334 -340
-334 -348
-334 -350
-334 -352
-334 -354
-334 -370
-334 -372
-334 -374
-334 -376
-334 -384
-334 -390
-334 -392
-334 -394
-334 -396
-334 -398
-338 -340
-338 -348
-338 -350
-338 -352
-338 -354
-338 -364
-338 -372
-338 -374
-338 -384
-338 -392
-338 -396
-338 -398
-340 -348
-340 -350
-340 -352
-340 -364
-340 -370
-340 -372
-340 -376
-340 -384
-340 -386
-340 -390
-340 -392
-340 -394
-340 -396
-340 -398
-348 -350
-348 -352
-348 -370
-348 -374
-348 -376
-348 -384
-348 -386
-348 -392
-348 -396
-348 -398
-350 -352
-350 -354
-350 -364
-350 -370
-350 -372
-350 -386
-350 -390
-350 -392
-350 -394
-350 -396
-350 -398
-352 -364
-352 -374
-352 -376
-352 -384
-352 -390
-352 -392
-352 -394
-352 -396
-354 -364
-354 -370
-354 -372
-354 -374
-354 -376
-354 -384
-354 -386
-354 -390
-354 -392
-354 -394
-354 -396
-354 -398
-364 -372
-364 -376
-364 -386
-364 -390
-364 -392
-364 -394
-364 -398
-370 -372
-370 -376
-370 -384
-370 -390
-370 -392
-370 -394
-370 -398
-372 -384
-372 -386
-372 -390
-372 -392
-372 -394
-372 -396
-372 -398
-374 -376
-374 -384
-374 -386
-374 -392
-374 -394
-374 -398
-376 -384
-376 -386
-376 -392
-376 -394
-376 -398
-384 -386
-384 -390
-384 -392
-384 -394
-384 -396
-384 -398
-386 -394
-386 -398
-390 -392
-390 -394
-390 -396
-390 -398
-392 -394
-392 -398
-394 -396
-394 -398
-396 -398

